node 0 w: 6.16, h: 12.95
node 1 w: 4.9, h: 12.95
node 2 w: 8.2026-07-01 20:04:43 - INFO - Set parameter Username
2026-07-01 20:04:43 - INFO - Set parameter LicenseID to value 2840060
2026-07-01 20:04:43 - INFO - Academic license - for non-commercial use only - expires 2027-07-01
2026-07-01 20:04:43 - INFO - Set parameter TimeLimit to value 300
2026-07-01 20:04:43 - INFO - Set parameter MIPGap to value 0
2026-07-01 20:04:43 - INFO - Set parameter MIPFocus to value 3
2026-07-01 20:04:43 - INFO - Set parameter Heuristics to value 0.5
2026-07-01 20:04:43 - INFO - Set parameter LogToConsole to value 1
2026-07-01 20:04:43 - INFO - Gurobi Optimizer version 13.0.1 build v13.0.1rc0 (linux64 - "Ubuntu 20.04.6 LTS")
2026-07-01 20:04:43 - INFO - 
2026-07-01 20:04:43 - INFO - CPU model: AMD Ryzen 9 9950X3D 16-Core Processor, instruction set [SSE2|AVX|AVX2|AVX512]
2026-07-01 20:04:43 - INFO - Thread count: 14 physical cores, 28 logical processors, using up to 28 threads
2026-07-01 20:04:43 - INFO - 
2026-07-01 20:04:43 - INFO - Non-default parameters:
2026-07-01 20:04:43 - INFO - TimeLimit  300
2026-07-01 20:04:43 - INFO - MIPGap  0
2026-07-01 20:04:43 - INFO - Heuristics  0.5
2026-07-01 20:04:43 - INFO - MIPFocus  3
2026-07-01 20:04:43 - INFO - 
2026-07-01 20:04:43 - INFO - Optimize a model with 1122 rows, 517 columns and 3815 nonzeros (Min)
2026-07-01 20:04:43 - INFO - Model fingerprint: 0x751c1348
2026-07-01 20:04:43 - INFO - Model has 3 linear objective coefficients
2026-07-01 20:04:43 - INFO - Variable types: 212 continuous, 305 integer (305 binary)
2026-07-01 20:04:43 - INFO - Coefficient statistics:
2026-07-01 20:04:43 - INFO -   Matrix range     [3e-01, 8e+03]
2026-07-01 20:04:43 - INFO -   Objective range  [8e-05, 9e-02]
2026-07-01 20:04:43 - INFO -   Bounds range     [9e-01, 1e+07]
2026-07-01 20:04:43 - INFO -   RHS range        [9e-01, 3e+02]
2026-07-01 20:04:43 - INFO - 
2026-07-01 20:04:43 - INFO - Presolve removed 101 rows and 87 columns
2026-07-01 20:04:43 - INFO - Presolve time: 0.01s
2026-07-01 20:04:43 - INFO - Presolved: 1021 rows, 430 columns, 3604 nonzeros
2026-07-01 20:04:43 - INFO - Variable types: 145 continuous, 285 integer (285 binary)
2026-07-01 20:04:43 - INFO - Root relaxation presolve removed 100 rows and 24 columns
2026-07-01 20:04:43 - INFO - Root relaxation presolved: 921 rows, 424 columns, 3382 nonzeros
2026-07-01 20:04:43 - INFO - 
2026-07-01 20:04:43 - INFO - 
2026-07-01 20:04:43 - INFO - Root relaxation: objective 2.557886e+00, 207 iterations, 0.00 seconds (0.01 work units)
2026-07-01 20:04:43 - INFO - 
2026-07-01 20:04:43 - INFO -     Nodes    |    Current Node    |     Objective Bounds      |     Work
2026-07-01 20:04:43 - INFO -  Expl Unexpl |  Obj  Depth IntInf | Incumbent    BestBd   Gap | It/Node Time
2026-07-01 20:04:43 - INFO - 
2026-07-01 20:04:43 - INFO -      0     0    2.55789    0  112          -    2.55789      -     -    0s
2026-07-01 20:04:43 - INFO -      0     0    2.56466    0  128          -    2.56466      -     -    0s
2026-07-01 20:04:43 - INFO -      0     0    2.56466    0  116          -    2.56466      -     -    0s
2026-07-01 20:04:43 - INFO -      0     0    3.79800    0  119          -    3.79800      -     -    0s
2026-07-01 20:04:43 - INFO -      0     0    4.07812    0  133          -    4.07812      -     -    0s
2026-07-01 20:04:43 - INFO -      0     0    4.07812    0  133          -    4.07812      -     -    0s
2026-07-01 20:04:43 - INFO -      0     0    4.07812    0  118          -    4.07812      -     -    0s
2026-07-01 20:04:43 - INFO -      0     0    5.44402    0  120          -    5.44402      -     -    0s
2026-07-01 20:04:43 - INFO -      0     0    5.44402    0  126          -    5.44402      -     -    0s
2026-07-01 20:04:43 - INFO -      0     0    5.47757    0  123          -    5.47757      -     -    0s
2026-07-01 20:04:43 - INFO -      0     0    5.51397    0  124          -    5.51397      -     -    0s
2026-07-01 20:04:43 - INFO -      0     0    5.55354    0  130          -    5.55354      -     -    0s
2026-07-01 20:04:43 - INFO -      0     0    5.55354    0  128          -    5.55354      -     -    0s
2026-07-01 20:04:43 - INFO -      0     0    5.55354    0  129          -    5.55354      -     -    0s
2026-07-01 20:04:43 - INFO -      0     0    5.55354    0  128          -    5.55354      -     -    0s
2026-07-01 20:04:44 - INFO -      0     0    5.55354    0  128          -    5.55354      -     -    0s
2026-07-01 20:04:44 - INFO -      0     0    6.20205    0  133          -    6.20205      -     -    0s
2026-07-01 20:04:44 - INFO -      0     0    6.20205    0  133          -    6.20205      -     -    0s
2026-07-01 20:04:44 - INFO -      0     0    6.20205    0  127          -    6.20205      -     -    0s
2026-07-01 20:04:44 - INFO -      0     0    6.47782    0  127          -    6.47782      -     -    0s
2026-07-01 20:04:44 - INFO -      0     0    6.47782    0  123          -    6.47782      -     -    0s
2026-07-01 20:04:45 - INFO -      0     2    6.47782    0  109          -    6.47782      -     -    1s
2026-07-01 20:04:48 - INFO -   4122  2701    8.36428   20   48          -    7.91092      -  58.2    5s
2026-07-01 20:04:51 - INFO - 
2026-07-01 20:04:51 - INFO - Cutting planes:
2026-07-01 20:04:51 - INFO -   Learned: 11
2026-07-01 20:04:51 - INFO -   Gomory: 97
2026-07-01 20:04:51 - INFO -   Lift-and-project: 65
2026-07-01 20:04:51 - INFO -   Cover: 1
2026-07-01 20:04:51 - INFO -   Implied bound: 1
2026-07-01 20:04:51 - INFO -   MIR: 16
2026-07-01 20:04:51 - INFO -   Flow cover: 171
2026-07-01 20:04:51 - INFO -   Inf proof: 3
2026-07-01 20:04:51 - INFO -   RLT: 1
2026-07-01 20:04:51 - INFO -   Relax-and-lift: 2
2026-07-01 20:04:51 - INFO - 
2026-07-01 20:04:51 - INFO - Explored 11530 nodes (503937 simplex iterations) in 7.50 seconds (11.71 work units)
2026-07-01 20:04:51 - INFO - Thread count was 28 (of 28 available processors)
2026-07-01 20:04:51 - INFO - 
2026-07-01 20:04:51 - INFO - Solution count 0
2026-07-01 20:04:51 - INFO - 
2026-07-01 20:04:51 - INFO - Model is infeasible
2026-07-01 20:04:51 - INFO - Best objective -, best bound -, gap -
2026-07-01 20:04:51 - INFO - Set parameter TimeLimit to value 300
2026-07-01 20:04:51 - INFO - Set parameter MIPGap to value 0.3
2026-07-01 20:04:51 - INFO - Set parameter MIPFocus to value 3
2026-07-01 20:04:51 - INFO - Set parameter Heuristics to value 0.5
2026-07-01 20:04:51 - INFO - Set parameter LogToConsole to value 1
2026-07-01 20:04:51 - INFO - Gurobi Optimizer version 13.0.1 build v13.0.1rc0 (linux64 - "Ubuntu 20.04.6 LTS")
2026-07-01 20:04:51 - INFO - 
2026-07-01 20:04:51 - INFO - CPU model: AMD Ryzen 9 9950X3D 16-Core Processor, instruction set [SSE2|AVX|AVX2|AVX512]
2026-07-01 20:04:51 - INFO - Thread count: 14 physical cores, 28 logical processors, using up to 28 threads
2026-07-01 20:04:51 - INFO - 
2026-07-01 20:04:51 - INFO - Non-default parameters:
2026-07-01 20:04:51 - INFO - TimeLimit  300
2026-07-01 20:04:51 - INFO - MIPGap  0.3
2026-07-01 20:04:51 - INFO - Heuristics  0.5
2026-07-01 20:04:51 - INFO - MIPFocus  3
2026-07-01 20:04:51 - INFO - 
2026-07-01 20:04:51 - INFO - Optimize a model with 1122 rows, 517 columns and 3815 nonzeros (Min)
2026-07-01 20:04:51 - INFO - Model fingerprint: 0x751c1348
2026-07-01 20:04:51 - INFO - Model has 3 linear objective coefficients
2026-07-01 20:04:51 - INFO - Variable types: 212 continuous, 305 integer (305 binary)
2026-07-01 20:04:51 - INFO - Coefficient statistics:
2026-07-01 20:04:51 - INFO -   Matrix range     [3e-01, 8e+03]
2026-07-01 20:04:51 - INFO -   Objective range  [8e-05, 9e-02]
2026-07-01 20:04:51 - INFO -   Bounds range     [9e-01, 1e+07]
2026-07-01 20:04:51 - INFO -   RHS range        [9e-01, 3e+02]
2026-07-01 20:04:51 - INFO - 
2026-07-01 20:04:51 - INFO - Presolved: 1021 rows, 430 columns, 3604 nonzeros
2026-07-01 20:04:51 - INFO - 
2026-07-01 20:04:51 - INFO - Continuing optimization...
2026-07-01 20:04:51 - INFO - 
2026-07-01 20:04:51 - INFO - 
2026-07-01 20:04:51 - INFO - Cutting planes:
2026-07-01 20:04:51 - INFO -   Learned: 11
2026-07-01 20:04:51 - INFO -   Gomory: 97
2026-07-01 20:04:51 - INFO -   Lift-and-project: 65
2026-07-01 20:04:51 - INFO -   Cover: 1
2026-07-01 20:04:51 - INFO -   Implied bound: 1
2026-07-01 20:04:51 - INFO -   MIR: 16
2026-07-01 20:04:51 - INFO -   Flow cover: 171
2026-07-01 20:04:51 - INFO -   Inf proof: 3
2026-07-01 20:04:51 - INFO -   RLT: 1
2026-07-01 20:04:51 - INFO -   Relax-and-lift: 2
2026-07-01 20:04:51 - INFO - 
2026-07-01 20:04:51 - INFO - Explored 11530 nodes (503937 simplex iterations) in 7.51 seconds (11.71 work units)
2026-07-01 20:04:51 - INFO - Most recent optimization runtime was 0.00 seconds (0.00 work units)
2026-07-01 20:04:51 - INFO - Thread count was 28 (of 28 available processors)
2026-07-01 20:04:51 - INFO - 
2026-07-01 20:04:51 - INFO - Solution count 0
2026-07-01 20:04:51 - INFO - 
2026-07-01 20:04:51 - INFO - Model is infeasible
2026-07-01 20:04:51 - INFO - Best objective -, best bound -, gap -
2026-07-01 20:04:51 - INFO - Set parameter TimeLimit to value 3592
2026-07-01 20:04:51 - INFO - Set parameter MIPGap to value 0.8
2026-07-01 20:04:51 - INFO - Set parameter MIPFocus to value 3
2026-07-01 20:04:51 - INFO - Set parameter Heuristics to value 0.5
2026-07-01 20:04:51 - INFO - Set parameter LogToConsole to value 1
2026-07-01 20:04:51 - INFO - Gurobi Optimizer version 13.0.1 build v13.0.1rc0 (linux64 - "Ubuntu 20.04.6 LTS")
2026-07-01 20:04:51 - INFO - 
2026-07-01 20:04:51 - INFO - CPU model: AMD Ryzen 9 9950X3D 16-Core Processor, instruction set [SSE2|AVX|AVX2|AVX512]
2026-07-01 20:04:51 - INFO - Thread count: 14 physical cores, 28 logical processors, using up to 28 threads
2026-07-01 20:04:51 - INFO - 
2026-07-01 20:04:51 - INFO - Non-default parameters:
2026-07-01 20:04:51 - INFO - TimeLimit  3592
2026-07-01 20:04:51 - INFO - MIPGap  0.8
2026-07-01 20:04:51 - INFO - Heuristics  0.5
2026-07-01 20:04:51 - INFO - MIPFocus  3
2026-07-01 20:04:51 - INFO - 
2026-07-01 20:04:51 - INFO - Optimize a model with 1122 rows, 517 columns and 3815 nonzeros (Min)
2026-07-01 20:04:51 - INFO - Model fingerprint: 0x751c1348
2026-07-01 20:04:51 - INFO - Model has 3 linear objective coefficients
2026-07-01 20:04:51 - INFO - Variable types: 212 continuous, 305 integer (305 binary)
2026-07-01 20:04:51 - INFO - Coefficient statistics:
2026-07-01 20:04:51 - INFO -   Matrix range     [3e-01, 8e+03]
2026-07-01 20:04:51 - INFO -   Objective range  [8e-05, 9e-02]
2026-07-01 20:04:51 - INFO -   Bounds range     [9e-01, 1e+07]
2026-07-01 20:04:51 - INFO -   RHS range        [9e-01, 3e+02]
2026-07-01 20:04:51 - INFO - 
2026-07-01 20:04:51 - INFO - Presolved: 1021 rows, 430 columns, 3604 nonzeros
2026-07-01 20:04:51 - INFO - 
2026-07-01 20:04:51 - INFO - Continuing optimization...
2026-07-01 20:04:51 - INFO - 
2026-07-01 20:04:51 - INFO - 
2026-07-01 20:04:51 - INFO - Cutting planes:
2026-07-01 20:04:51 - INFO -   Learned: 11
2026-07-01 20:04:51 - INFO -   Gomory: 97
2026-07-01 20:04:51 - INFO -   Lift-and-project: 65
2026-07-01 20:04:51 - INFO -   Cover: 1
2026-07-01 20:04:51 - INFO -   Implied bound: 1
2026-07-01 20:04:51 - INFO -   MIR: 16
2026-07-01 20:04:51 - INFO -   Flow cover: 171
2026-07-01 20:04:51 - INFO -   Inf proof: 3
2026-07-01 20:04:51 - INFO -   RLT: 1
2026-07-01 20:04:51 - INFO -   Relax-and-lift: 2
2026-07-01 20:04:51 - INFO - 
2026-07-01 20:04:51 - INFO - Explored 11530 nodes (503937 simplex iterations) in 7.51 seconds (11.71 work units)
2026-07-01 20:04:51 - INFO - Most recent optimization runtime was 0.00 seconds (0.00 work units)
2026-07-01 20:04:51 - INFO - Thread count was 28 (of 28 available processors)
2026-07-01 20:04:51 - INFO - 
2026-07-01 20:04:51 - INFO - Solution count 0
2026-07-01 20:04:51 - INFO - 
2026-07-01 20:04:51 - INFO - Model is infeasible
2026-07-01 20:04:51 - INFO - Best objective -, best bound -, gap -
2026-07-01 20:04:51 - INFO - 
EMIB returned 0 solution(s) (max 1).
47782    0  127          -    6.47782      -     -    0s
     0     0    6.47782    0  123          -    6.47782      -     -    0s
     0     2    6.47782    0  109          -    6.47782      -     -    1s
  4122  2701    8.36428   20   48          -    7.91092      -  58.2    5s

Cutting planes:
  Learned: 11
  Gomory: 97
  Lift-and-project: 65
  Cover: 1
  Implied bound: 1
  MIR: 16
  Flow cover: 171
  Inf proof: 3
  RLT: 1
  Relax-and-lift: 2

Explored 11530 nodes (503937 simplex iterations) in 7.50 seconds (11.71 work units)
Thread count was 28 (of 28 available processors)

Solution count 0

Model is infeasible
Best objective -, best bound -, gap -
[EMIB] No feasible solution: MIPGap=0.0, status=3, time=7.50s, SolCount=0
[EMIB] Phase 1 no feasible solution, switching to phase 2 MIPGap=0.3.
Set parameter TimeLimit to value 300
Set parameter MIPGap to value 0.3
Set parameter MIPFocus to value 3
Set parameter Heuristics to value 0.5
Set parameter LogToConsole to value 1
Gurobi Optimizer version 13.0.1 build v13.0.1rc0 (linux64 - "Ubuntu 20.04.6 LTS")

CPU model: AMD Ryzen 9 9950X3D 16-Core Processor, instruction set [SSE2|AVX|AVX2|AVX512]
Thread count: 14 physical cores, 28 logical processors, using up to 28 threads

Non-default parameters:
TimeLimit  300
MIPGap  0.3
Heuristics  0.5
MIPFocus  3

Optimize a model with 1122 rows, 517 columns and 3815 nonzeros (Min)
Model fingerprint: 0x751c1348
Model has 3 linear objective coefficients
Variable types: 212 continuous, 305 integer (305 binary)
Coefficient statistics:
  Matrix range     [3e-01, 8e+03]
  Objective range  [8e-05, 9e-02]
  Bounds range     [9e-01, 1e+07]
  RHS range        [9e-01, 3e+02]

Presolved: 1021 rows, 430 columns, 3604 nonzeros

Continuing optimization...


Cutting planes:
  Learned: 11
  Gomory: 97
  Lift-and-project: 65
  Cover: 1
  Implied bound: 1
  MIR: 16
  Flow cover: 171
  Inf proof: 3
  RLT: 1
  Relax-and-lift: 2

Explored 11530 nodes (503937 simplex iterations) in 7.51 seconds (11.71 work units)
Most recent optimization runtime was 0.00 seconds (0.00 work units)
Thread count was 28 (of 28 available processors)

Solution count 0

Model is infeasible
Best objective -, best bound -, gap -
[EMIB] No feasible solution: MIPGap=0.3, status=3, time=0.00s, SolCount=0
[EMIB] Phase 2 no feasible solution, switching to phase 3 MIPGap=0.8.
Set parameter TimeLimit to value 3592
Set parameter MIPGap to value 0.8
Set parameter MIPFocus to value 3
Set parameter Heuristics to value 0.5
Set parameter LogToConsole to value 1
Gurobi Optimizer version 13.0.1 build v13.0.1rc0 (linux64 - "Ubuntu 20.04.6 LTS")

CPU model: AMD Ryzen 9 9950X3D 16-Core Processor, instruction set [SSE2|AVX|AVX2|AVX512]
Thread count: 14 physical cores, 28 logical processors, using up to 28 threads

Non-default parameters:
TimeLimit  3592
MIPGap  0.8
Heuristics  0.5
MIPFocus  3

Optimize a model with 1122 rows, 517 columns and 3815 nonzeros (Min)
Model fingerprint: 0x751c1348
Model has 3 linear objective coefficients
Variable types: 212 continuous, 305 integer (305 binary)
Coefficient statistics:
  Matrix range     [3e-01, 8e+03]
  Objective range  [8e-05, 9e-02]
  Bounds range     [9e-01, 1e+07]
  RHS range        [9e-01, 3e+02]

Presolved: 1021 rows, 430 columns, 3604 nonzeros

Continuing optimization...


Cutting planes:
  Learned: 11
  Gomory: 97
  Lift-and-project: 65
  Cover: 1
  Implied bound: 1
  MIR: 16
  Flow cover: 171
  Inf proof: 3
  RLT: 1
  Relax-and-lift: 2

Explored 11530 nodes (503937 simplex iterations) in 7.51 seconds (11.71 work units)
Most recent optimization runtime was 0.00 seconds (0.00 work units)
Thread count was 28 (of 28 available processors)

Solution count 0

Model is infeasible
Best objective -, best bound -, gap -
[EMIB] No feasible solution: MIPGap=0.8, status=3, time=0.00s, SolCount=0
[EMIB] Search failed, no feasible solution
  ✓ EMIB: 0 solution(s)
